certificates/rado_a15_c153_N34.cnf
c Rad2 upper bound instance: x1 + 15*x2 - x3 = 153, interval [1,34]
p cnf 34 154
1 11 13 0
-1 -11 -13 0
1 12 28 0
-1 -12 -28 0
2 11 14 0
-2 -11 -14 0
2 12 29 0
-2 -12 -29 0
3 11 15 0
-3 -11 -15 0
3 12 30 0
-3 -12 -30 0
1 4 10 0
-1 -4 -10 0
4 11 16 0
-4 -11 -16 0
4 12 31 0
-4 -12 -31 0
2 5 10 0
-2 -5 -10 0
5 11 17 0
-5 -11 -17 0
5 12 32 0
-5 -12 -32 0
3 6 10 0
-3 -6 -10 0
6 11 18 0
-6 -11 -18 0
6 12 33 0
-6 -12 -33 0
4 7 10 0
-4 -7 -10 0
7 11 19 0
-7 -11 -19 0
7 12 34 0
-7 -12 -34 0
5 8 10 0
-5 -8 -10 0
8 11 20 0
-8 -11 -20 0
6 9 10 0
-6 -9 -10 0
9 11 21 0
-9 -11 -21 0
7 10 0
-7 -10 0
10 11 22 0
-10 -11 -22 0
8 10 11 0
-8 -10 -11 0
11 23 0
-11 -23 0
9 10 12 0
-9 -10 -12 0
11 12 24 0
-11 -12 -24 0
10 13 0
-10 -13 0
11 13 25 0
-11 -13 -25 0
10 11 14 0
-10 -11 -14 0
11 14 26 0
-11 -14 -26 0
10 12 15 0
-10 -12 -15 0
11 15 27 0
-11 -15 -27 0
10 13 16 0
-10 -13 -16 0
11 16 28 0
-11 -16 -28 0
10 14 17 0
-10 -14 -17 0
11 17 29 0
-11 -17 -29 0
10 15 18 0
-10 -15 -18 0
11 18 30 0
-11 -18 -30 0
1 9 19 0
-1 -9 -19 0
10 16 19 0
-10 -16 -19 0
11 19 31 0
-11 -19 -31 0
2 9 20 0
-2 -9 -20 0
10 17 20 0
-10 -17 -20 0
11 20 32 0
-11 -20 -32 0
3 9 21 0
-3 -9 -21 0
10 18 21 0
-10 -18 -21 0
11 21 33 0
-11 -21 -33 0
4 9 22 0
-4 -9 -22 0
10 19 22 0
-10 -19 -22 0
11 22 34 0
-11 -22 -34 0
5 9 23 0
-5 -9 -23 0
10 20 23 0
-10 -20 -23 0
6 9 24 0
-6 -9 -24 0
10 21 24 0
-10 -21 -24 0
7 9 25 0
-7 -9 -25 0
10 22 25 0
-10 -22 -25 0
8 9 26 0
-8 -9 -26 0
10 23 26 0
-10 -23 -26 0
9 27 0
-9 -27 0
10 24 27 0
-10 -24 -27 0
9 10 28 0
-9 -10 -28 0
10 25 28 0
-10 -25 -28 0
9 11 29 0
-9 -11 -29 0
10 26 29 0
-10 -26 -29 0
9 12 30 0
-9 -12 -30 0
10 27 30 0
-10 -27 -30 0
9 13 31 0
-9 -13 -31 0
10 28 31 0
-10 -28 -31 0
9 14 32 0
-9 -14 -32 0
10 29 32 0
-10 -29 -32 0
9 15 33 0
-9 -15 -33 0
10 30 33 0
-10 -30 -33 0
1 8 34 0
-1 -8 -34 0
9 16 34 0
-9 -16 -34 0
10 31 34 0
-10 -31 -34 0
