certificates/rado_a15_c153_N34.drat
-31 -34 0
d -31 -10 -34 0
10 -33 -34 0
-10 31 0
-34 0
-13 0
10 0
-7 0
31 0
12 0
-28 0
-4 0
-15 0
-9 0
22 0
33 0
25 0
27 0
16 0
0
